Academic license - for non-commercial use only
Optimize a model with 7110 rows, 6750 columns and 937701 nonzeros
Variable types: 0 continuous, 6750 integer (6750 binary)
Coefficient statistics:
  Matrix range     [1e+00, 3e+01]
  Objective range  [1e+00, 8e+01]
  Bounds range     [1e+00, 1e+00]
  RHS range        [1e+00, 2e+02]
Found heuristic solution: objective 639
Presolve removed 1555 rows and 1371 columns
Presolve time: 3.41s
Presolved: 5555 rows, 5379 columns, 723756 nonzeros
Variable types: 0 continuous, 5379 integer (5379 binary)

Root relaxation: objective 1.094647e+02, 138 iterations, 0.08 seconds

    Nodes    |    Current Node    |     Objective Bounds      |     Work
 Expl Unexpl |  Obj  Depth IntInf | Incumbent    BestBd   Gap | It/Node Time

     0     0  109.46466    0   60  639.00000  109.46466  82.9%     -    3s
H    0     0                     272.0000000  109.46466  59.8%     -    4s
H    0     0                     263.0000000  109.46466  58.4%     -    4s
H    0     0                     219.0000000  109.46466  50.0%     -    5s
     0     0  125.05745    0   54  219.00000  125.05745  42.9%     -    6s
     0     0  127.95195    0   48  219.00000  127.95195  41.6%     -    7s
     0     0  127.99671    0   45  219.00000  127.99671  41.6%     -    7s
H    0     0                     215.0000000  127.99671  40.5%     -    7s
     0     0  134.26569    0   57  215.00000  134.26569  37.6%     -    7s
     0     0  139.09239    0   57  215.00000  139.09239  35.3%     -    8s
     0     0  139.10000    0   58  215.00000  139.10000  35.3%     -    8s
     0     0  150.47631    0   60  215.00000  150.47631  30.0%     -    9s
     0     0  152.25729    0   68  215.00000  152.25729  29.2%     -    9s
     0     0  171.56322    0   72  215.00000  171.56322  20.2%     -   10s
H    0     0                     204.0000000  171.56322  15.9%     -   10s
     0     0  172.14388    0   72  204.00000  172.14388  15.6%     -   10s
     0     0  179.42174    0   71  204.00000  179.42174  12.0%     -   11s
     0     0  179.42174    0   63  204.00000  179.42174  12.0%     -   14s
     0     0  179.42174    0   61  204.00000  179.42174  12.0%     -   15s
     0     0  179.42174    0   51  204.00000  179.42174  12.0%     -   15s
     0     0  179.42174    0   74  204.00000  179.42174  12.0%     -   15s
     0     0  179.42174    0   72  204.00000  179.42174  12.0%     -   16s
     0     0  179.42174    0   72  204.00000  179.42174  12.0%     -   16s
     0     0  182.81471    0   61  204.00000  182.81471  10.4%     -   16s
H    0     0                     200.0000000  182.81471  8.59%     -   16s
     0     0  183.94286    0   75  200.00000  183.94286  8.03%     -   16s
     0     0  186.00000    0    6  200.00000  186.00000  7.00%     -   17s
H    0     0                     199.0000000  186.00000  6.53%     -   20s
     0     0  186.00000    0   43  199.00000  186.00000  6.53%     -   20s
     0     0  186.00000    0   64  199.00000  186.00000  6.53%     -   21s
     0     0  186.00000    0   69  199.00000  186.00000  6.53%     -   21s
     0     0  186.00000    0   60  199.00000  186.00000  6.53%     -   21s
     0     0  186.00000    0   79  199.00000  186.00000  6.53%     -   21s
     0     0  186.00000    0   53  199.00000  186.00000  6.53%     -   21s
     0     0  186.00000    0    6  199.00000  186.00000  6.53%     -   21s
     0     0  187.50000    0   23  199.00000  187.50000  5.78%     -   21s
H    0     0                     197.0000000  187.50000  4.82%     -   22s
     0     0  188.00000    0    4  197.00000  188.00000  4.57%     -   22s
     0     0  188.00000    0   57  197.00000  188.00000  4.57%     -   23s
     0     0  188.00000    0   66  197.00000  188.00000  4.57%     -   24s
     0     0  188.00000    0   64  197.00000  188.00000  4.57%     -   24s
     0     0  188.00000    0   71  197.00000  188.00000  4.57%     -   24s
     0     0  188.00000    0   72  197.00000  188.00000  4.57%     -   24s
     0     0  188.00000    0   22  197.00000  188.00000  4.57%     -   24s
     0     0  188.00000    0    6  197.00000  188.00000  4.57%     -   24s
     0     0  188.00000    0    6  197.00000  188.00000  4.57%     -   24s
H    0     0                     190.0000000  188.00000  1.05%     -   24s
     0     0  188.40000    0   28  190.00000  188.40000  0.84%     -   24s
     0     0  188.40000    0   90  190.00000  188.40000  0.84%     -   25s
     0     0  188.40000    0   99  190.00000  188.40000  0.84%     -   25s
     0     0  188.40000    0   86  190.00000  188.40000  0.84%     -   25s
     0     0  188.50000    0   69  190.00000  188.50000  0.79%     -   25s
     0     0     cutoff    0       190.00000  190.00000  0.00%     -   25s

Cutting planes:
  Cover: 1
  Clique: 40
  Zero half: 3

Explored 1 nodes (4784 simplex iterations) in 25.21 seconds
Thread count was 8 (of 8 available processors)

Solution count 10: 190 197 199 ... 639

Optimal solution found (tolerance 1.00e-04)
Best objective 1.900000000000e+02, best bound 1.900000000000e+02, gap 0.0000%

